node 0 w: 6.16, h: 12.95
node 1 w: 4.9, h: 12.95
node 2 w: 8.2026-06-13 10:28:16 - INFO - Set parameter WLSAccessID
2026-06-13 10:28:16 - INFO - Set parameter WLSSecret
2026-06-13 10:28:16 - INFO - Set parameter LicenseID to value 2756663
2026-06-13 10:28:16 - INFO - Academic license 2756663 - for non-commercial use only - registered to hu___@sjtu.edu.cn
2026-06-13 10:28:16 - INFO - Set parameter TimeLimit to value 300
2026-06-13 10:28:16 - INFO - Set parameter MIPGap to value 0
2026-06-13 10:28:16 - INFO - Set parameter MIPFocus to value 3
2026-06-13 10:28:16 - INFO - Set parameter Heuristics to value 0.5
2026-06-13 10:28:16 - INFO - Set parameter LogToConsole to value 1
2026-06-13 10:28:16 - INFO - Gurobi Optimizer version 13.0.1 build v13.0.1rc0 (linux64 - "Ubuntu 20.04.6 LTS")
2026-06-13 10:28:16 - INFO - 
2026-06-13 10:28:16 - INFO - CPU model: AMD Ryzen 9 9950X3D 16-Core Processor, instruction set [SSE2|AVX|AVX2|AVX512]
2026-06-13 10:28:16 - INFO - Thread count: 14 physical cores, 28 logical processors, using up to 28 threads
2026-06-13 10:28:16 - INFO - 
2026-06-13 10:28:16 - INFO - Non-default parameters:
2026-06-13 10:28:16 - INFO - TimeLimit  300
2026-06-13 10:28:16 - INFO - MIPGap  0
2026-06-13 10:28:16 - INFO - Heuristics  0.5
2026-06-13 10:28:16 - INFO - MIPFocus  3
2026-06-13 10:28:16 - INFO - 
2026-06-13 10:28:16 - INFO - Academic license 2756663 - for non-commercial use only - registered to hu___@sjtu.edu.cn
2026-06-13 10:28:16 - INFO - Optimize a model with 1107 rows, 510 columns and 3773 nonzeros (Min)
2026-06-13 10:28:16 - INFO - Model fingerprint: 0xa5fac131
2026-06-13 10:28:16 - INFO - Model has 4 linear objective coefficients
2026-06-13 10:28:16 - INFO - Variable types: 207 continuous, 303 integer (303 binary)
2026-06-13 10:28:16 - INFO - Coefficient statistics:
2026-06-13 10:28:16 - INFO -   Matrix range     [3e-01, 4e+03]
2026-06-13 10:28:16 - INFO -   Objective range  [6e-06, 9e-02]
2026-06-13 10:28:16 - INFO -   Bounds range     [9e-01, 1e+07]
2026-06-13 10:28:16 - INFO -   RHS range        [9e-01, 3e+02]
2026-06-13 10:28:16 - INFO - 
2026-06-13 10:28:16 - INFO - Presolve removed 100 rows and 86 columns
2026-06-13 10:28:16 - INFO - Presolve time: 0.01s
2026-06-13 10:28:16 - INFO - Presolved: 1007 rows, 424 columns, 3564 nonzeros
2026-06-13 10:28:16 - INFO - Variable types: 141 continuous, 283 integer (283 binary)
2026-06-13 10:28:16 - INFO - Root relaxation presolve removed 86 rows and 18 columns
2026-06-13 10:28:16 - INFO - Root relaxation presolved: 921 rows, 424 columns, 3378 nonzeros
2026-06-13 10:28:16 - INFO - 
2026-06-13 10:28:16 - INFO - 
2026-06-13 10:28:16 - INFO - Root relaxation: objective -4.187260e+00, 215 iterations, 0.00 seconds (0.01 work units)
2026-06-13 10:28:16 - INFO - 
2026-06-13 10:28:16 - INFO -     Nodes    |    Current Node    |     Objective Bounds      |     Work
2026-06-13 10:28:16 - INFO -  Expl Unexpl |  Obj  Depth IntInf | Incumbent    BestBd   Gap | It/Node Time
2026-06-13 10:28:16 - INFO - 
2026-06-13 10:28:16 - INFO -      0     0   -4.18726    0  114          -   -4.18726      -     -    0s
2026-06-13 10:28:16 - INFO -      0     0   -0.84272    0  133          -   -0.84272      -     -    0s
2026-06-13 10:28:16 - INFO -      0     0   -0.84272    0  108          -   -0.84272      -     -    0s
2026-06-13 10:28:16 - INFO -      0     0    1.62799    0  109          -    1.62799      -     -    0s
2026-06-13 10:28:16 - INFO -      0     0    2.52040    0  120          -    2.52040      -     -    0s
2026-06-13 10:28:16 - INFO -      0     0    2.52040    0  112          -    2.52040      -     -    0s
2026-06-13 10:28:16 - INFO -      0     0    2.67830    0  111          -    2.67830      -     -    0s
2026-06-13 10:28:16 - INFO -      0     0    2.68328    0  111          -    2.68328      -     -    0s
2026-06-13 10:28:16 - INFO -      0     0    2.69110    0  121          -    2.69110      -     -    0s
2026-06-13 10:28:16 - INFO -      0     0    2.69110    0  123          -    2.69110      -     -    0s
2026-06-13 10:28:16 - INFO -      0     0    2.69110    0  124          -    2.69110      -     -    0s
2026-06-13 10:28:16 - INFO -      0     0    3.26182    0  127          -    3.26182      -     -    0s
2026-06-13 10:28:16 - INFO -      0     0    3.26182    0  127          -    3.26182      -     -    0s
2026-06-13 10:28:17 - INFO -      0     0    3.26182    0  108          -    3.26182      -     -    0s
2026-06-13 10:28:17 - INFO -      0     0    3.71417    0  107          -    3.71417      -     -    0s
2026-06-13 10:28:17 - INFO -      0     0    3.71417    0  107          -    3.71417      -     -    0s
2026-06-13 10:28:18 - INFO -      0     2    3.71417    0  103          -    3.71417      -     -    1s
2026-06-13 10:28:21 - INFO -   4354  2866    7.90287   26   47          -    7.27055      -  50.7    5s
2026-06-13 10:28:26 - INFO -  18813  3063 infeasible   38               -    9.20425      -  37.4   10s
2026-06-13 10:28:28 - INFO - 
2026-06-13 10:28:28 - INFO - Cutting planes:
2026-06-13 10:28:28 - INFO -   Learned: 17
2026-06-13 10:28:28 - INFO -   Gomory: 90
2026-06-13 10:28:28 - INFO -   Lift-and-project: 65
2026-06-13 10:28:28 - INFO -   Cover: 2
2026-06-13 10:28:28 - INFO -   MIR: 40
2026-06-13 10:28:28 - INFO -   Mixing: 2
2026-06-13 10:28:28 - INFO -   Flow cover: 273
2026-06-13 10:28:28 - INFO -   Inf proof: 23
2026-06-13 10:28:28 - INFO -   RLT: 1
2026-06-13 10:28:28 - INFO - 
2026-06-13 10:28:28 - INFO - Explored 26850 nodes (922556 simplex iterations) in 11.57 seconds (16.93 work units)
2026-06-13 10:28:28 - INFO - Thread count was 28 (of 28 available processors)
2026-06-13 10:28:28 - INFO - 
2026-06-13 10:28:28 - INFO - Solution count 0
2026-06-13 10:28:28 - INFO - 
2026-06-13 10:28:28 - INFO - Model is infeasible or unbounded
2026-06-13 10:28:28 - INFO - Best objective -, best bound -, gap -
2026-06-13 10:28:28 - INFO - Set parameter TimeLimit to value 300
2026-06-13 10:28:28 - INFO - Set parameter MIPGap to value 0.3
2026-06-13 10:28:28 - INFO - Set parameter MIPFocus to value 3
2026-06-13 10:28:28 - INFO - Set parameter Heuristics to value 0.5
2026-06-13 10:28:28 - INFO - Set parameter LogToConsole to value 1
2026-06-13 10:28:28 - INFO - Gurobi Optimizer version 13.0.1 build v13.0.1rc0 (linux64 - "Ubuntu 20.04.6 LTS")
2026-06-13 10:28:28 - INFO - 
2026-06-13 10:28:28 - INFO - CPU model: AMD Ryzen 9 9950X3D 16-Core Processor, instruction set [SSE2|AVX|AVX2|AVX512]
2026-06-13 10:28:28 - INFO - Thread count: 14 physical cores, 28 logical processors, using up to 28 threads
2026-06-13 10:28:28 - INFO - 
2026-06-13 10:28:28 - INFO - Non-default parameters:
2026-06-13 10:28:28 - INFO - TimeLimit  300
2026-06-13 10:28:28 - INFO - MIPGap  0.3
2026-06-13 10:28:28 - INFO - Heuristics  0.5
2026-06-13 10:28:28 - INFO - MIPFocus  3
2026-06-13 10:28:28 - INFO - 
2026-06-13 10:28:28 - INFO - Academic license 2756663 - for non-commercial use only - registered to hu___@sjtu.edu.cn
2026-06-13 10:28:28 - INFO - Optimize a model with 1107 rows, 510 columns and 3773 nonzeros (Min)
2026-06-13 10:28:28 - INFO - Model fingerprint: 0xa5fac131
2026-06-13 10:28:28 - INFO - Model has 4 linear objective coefficients
2026-06-13 10:28:28 - INFO - Variable types: 207 continuous, 303 integer (303 binary)
2026-06-13 10:28:28 - INFO - Coefficient statistics:
2026-06-13 10:28:28 - INFO -   Matrix range     [3e-01, 4e+03]
2026-06-13 10:28:28 - INFO -   Objective range  [6e-06, 9e-02]
2026-06-13 10:28:28 - INFO -   Bounds range     [9e-01, 1e+07]
2026-06-13 10:28:28 - INFO -   RHS range        [9e-01, 3e+02]
2026-06-13 10:28:28 - INFO - 
2026-06-13 10:28:28 - INFO - Presolved: 1007 rows, 424 columns, 3564 nonzeros
2026-06-13 10:28:28 - INFO - 
2026-06-13 10:28:28 - INFO - Continuing optimization...
2026-06-13 10:28:28 - INFO - 
2026-06-13 10:28:28 - INFO - 
2026-06-13 10:28:28 - INFO - Cutting planes:
2026-06-13 10:28:28 - INFO -   Learned: 17
2026-06-13 10:28:28 - INFO -   Gomory: 90
2026-06-13 10:28:28 - INFO -   Lift-and-project: 65
2026-06-13 10:28:28 - INFO -   Cover: 2
2026-06-13 10:28:28 - INFO -   MIR: 40
2026-06-13 10:28:28 - INFO -   Mixing: 2
2026-06-13 10:28:28 - INFO -   Flow cover: 273
2026-06-13 10:28:28 - INFO -   Inf proof: 23
2026-06-13 10:28:28 - INFO -   RLT: 1
2026-06-13 10:28:28 - INFO - 
2026-06-13 10:28:28 - INFO - Explored 26850 nodes (922556 simplex iterations) in 11.57 seconds (16.93 work units)
2026-06-13 10:28:28 - INFO - Most recent optimization runtime was 0.00 seconds (0.00 work units)
2026-06-13 10:28:28 - INFO - Thread count was 28 (of 28 available processors)
2026-06-13 10:28:28 - INFO - 
2026-06-13 10:28:28 - INFO - Solution count 0
2026-06-13 10:28:28 - INFO - 
2026-06-13 10:28:28 - INFO - Model is infeasible or unbounded
2026-06-13 10:28:28 - INFO - Best objective -, best bound -, gap -
2026-06-13 10:28:28 - INFO - Set parameter TimeLimit to value 3600
2026-06-13 10:28:28 - INFO - Set parameter MIPGap to value 0.8
2026-06-13 10:28:28 - INFO - Set parameter MIPFocus to value 3
2026-06-13 10:28:28 - INFO - Set parameter Heuristics to value 0.5
2026-06-13 10:28:28 - INFO - Set parameter LogToConsole to value 1
2026-06-13 10:28:28 - INFO - Gurobi Optimizer version 13.0.1 build v13.0.1rc0 (linux64 - "Ubuntu 20.04.6 LTS")
2026-06-13 10:28:28 - INFO - 
2026-06-13 10:28:28 - INFO - CPU model: AMD Ryzen 9 9950X3D 16-Core Processor, instruction set [SSE2|AVX|AVX2|AVX512]
2026-06-13 10:28:28 - INFO - Thread count: 14 physical cores, 28 logical processors, using up to 28 threads
2026-06-13 10:28:28 - INFO - 
2026-06-13 10:28:28 - INFO - Non-default parameters:
2026-06-13 10:28:28 - INFO - TimeLimit  3600
2026-06-13 10:28:28 - INFO - MIPGap  0.8
2026-06-13 10:28:28 - INFO - Heuristics  0.5
2026-06-13 10:28:28 - INFO - MIPFocus  3
2026-06-13 10:28:28 - INFO - 
2026-06-13 10:28:28 - INFO - Academic license 2756663 - for non-commercial use only - registered to hu___@sjtu.edu.cn
2026-06-13 10:28:28 - INFO - Optimize a model with 1107 rows, 510 columns and 3773 nonzeros (Min)
2026-06-13 10:28:28 - INFO - Model fingerprint: 0xa5fac131
2026-06-13 10:28:28 - INFO - Model has 4 linear objective coefficients
2026-06-13 10:28:28 - INFO - Variable types: 207 continuous, 303 integer (303 binary)
2026-06-13 10:28:28 - INFO - Coefficient statistics:
2026-06-13 10:28:28 - INFO -   Matrix range     [3e-01, 4e+03]
2026-06-13 10:28:28 - INFO -   Objective range  [6e-06, 9e-02]
2026-06-13 10:28:28 - INFO -   Bounds range     [9e-01, 1e+07]
2026-06-13 10:28:28 - INFO -   RHS range        [9e-01, 3e+02]
2026-06-13 10:28:28 - INFO - 
2026-06-13 10:28:28 - INFO - Presolved: 1007 rows, 424 columns, 3564 nonzeros
2026-06-13 10:28:28 - INFO - 
2026-06-13 10:28:28 - INFO - Continuing optimization...
2026-06-13 10:28:28 - INFO - 
2026-06-13 10:28:28 - INFO - 
2026-06-13 10:28:28 - INFO - Cutting planes:
2026-06-13 10:28:28 - INFO -   Learned: 17
2026-06-13 10:28:28 - INFO -   Gomory: 90
2026-06-13 10:28:28 - INFO -   Lift-and-project: 65
2026-06-13 10:28:28 - INFO -   Cover: 2
2026-06-13 10:28:28 - INFO -   MIR: 40
2026-06-13 10:28:28 - INFO -   Mixing: 2
2026-06-13 10:28:28 - INFO -   Flow cover: 273
2026-06-13 10:28:28 - INFO -   Inf proof: 23
2026-06-13 10:28:28 - INFO -   RLT: 1
2026-06-13 10:28:28 - INFO - 
2026-06-13 10:28:28 - INFO - Explored 26850 nodes (922556 simplex iterations) in 11.57 seconds (16.93 work units)
2026-06-13 10:28:28 - INFO - Most recent optimization runtime was 0.00 seconds (0.00 work units)
2026-06-13 10:28:28 - INFO - Thread count was 28 (of 28 available processors)
2026-06-13 10:28:28 - INFO - 
2026-06-13 10:28:28 - INFO - Solution count 0
2026-06-13 10:28:28 - INFO - 
2026-06-13 10:28:28 - INFO - Model is infeasible or unbounded
2026-06-13 10:28:28 - INFO - Best objective -, best bound -, gap -
2026-06-13 10:28:28 - INFO - 
EMIB returned 0 solution(s) (max 1).
273
  Inf proof: 23
  RLT: 1

Explored 26850 nodes (922556 simplex iterations) in 11.57 seconds (16.93 work units)
Most recent optimization runtime was 0.00 seconds (0.00 work units)
Thread count was 28 (of 28 available processors)

Solution count 0

Model is infeasible or unbounded
Best objective -, best bound -, gap -
[EMIB] No feasible solution: MIPGap=0.8, status=4, time=0.00s, SolCount=0
[EMIB] Search failed, no feasible solution
  ✓ EMIB: 0 solution(s)
